n_res = 4;
rcap = [18, 20, 71, 79];
rtype = [1, 1, 2, 2];
n_tasks = 16;
modes = [ {1, 2, 3}, {4, 5, 6}, {7, 8, 9}, {10, 11, 12}, {13, 14, 15}, {16, 17, 18}, {19, 20, 21}, {22, 23, 24}, {25, 26, 27}, {28, 29, 30}, {31, 32, 33}, {34, 35, 36}, {37, 38, 39}, {40, 41, 42}, {43, 44, 45}, {46, 47, 48} ];
succ = [ {5, 6, 8}, {4, 5, 6}, {4, 6, 8}, {7, 12, 13}, {9, 11, 12}, {7, 10, 11}, {9, 15}, {10, 11, 13}, {14, 16}, {12, 16}, {14}, {15}, {14, 15, 16}, {}, {}, {} ];
n_opt = 48;
dur = [3, 3, 10, 5, 7, 8, 4, 5, 10, 1, 3, 10, 3, 9, 10, 4, 6, 10, 5, 5, 9, 4, 4, 10, 2, 8, 9, 5, 10, 10, 4, 7, 7, 2, 5, 10, 1, 1, 6, 4, 5, 8, 4, 7, 9, 1, 5, 8];
rreq = [|  2,  2,  2,  8,  6,  6,  7,  6,  4,  4,  3,  2,  9,  8,  7,  6,  5,  4,  5,  7,  4,  8,  7,  6,  4,  3,  2,  9,  7,  7,  9,  8,  9,  9,  9,  8,  8,  7,  7,  4,  4,  3,  8,  5,  2,  7,  3,  2
        | 10,  9,  6,  5,  5,  5,  6,  5,  5,  8,  7,  7,  7,  5,  2,  8,  8,  5,  9,  9,  9,  8,  8,  8,  8,  8,  5,  5,  3,  2,  8,  8,  7, 10,  8,  6,  6,  7,  2,  5,  3,  3,  6,  4,  2,  3,  3,  2
        |  6,  7,  5,  8,  6,  6,  5,  4,  1,  8,  5,  5,  7,  6,  6,  4,  3,  2,  5,  4,  4,  8,  9,  7,  8,  8,  5,  9,  5,  6,  8,  4,  6,  2,  2,  1,  4,  4,  2,  5,  4,  2,  9,  7,  4,  7,  6,  1
        |  8,  8,  7,  5,  4,  1,  4,  3,  3,  7,  4,  1,  9,  8,  7,  9,  9,  9,  9, 10,  7,  5,  5,  4,  7,  7,  7,  3,  1,  1,  7,  5,  5,  7,  5,  4,  5,  5,  5,  3,  3,  2,  1,  1,  1, 10,  8,  8 |];
